set VV := 0 1 2 ;
set VS := 0 1 2 3 4 5 6 7 8 9 10 ;
param cv := 
0 14
1 15
2 24
;
param cs := 
0 39
1 31
2 23
3 33
4 27
5 37
6 32
7 33
8 32
9 28
10 35
;
param bv:	 0 1 2 := 
		0 0 23 10 
		1 0 0 16 
		2 0 0 0 
;
param bs:	 0 1 2 3 4 5 6 7 8 9 10 := 
		0 0 0 0 0 34 0 0 0 0 0 0 
		1 0 0 0 0 0 0 0 0 0 30 0 
		2 0 0 0 0 0 29 0 0 35 0 0 
		3 0 0 0 0 0 0 0 35 20 0 0 
		4 34 0 0 0 0 0 0 0 0 38 0 
		5 0 0 29 0 0 0 40 0 0 34 0 
		6 0 0 0 0 0 40 0 0 0 0 0 
		7 0 0 0 35 0 0 0 0 0 0 29 
		8 0 0 35 20 0 0 0 0 0 0 0 
		9 0 30 0 0 38 34 0 0 0 0 0 
		10 0 0 0 0 0 0 0 29 0 0 0 
;
